NAME : netgen22-5-9
COMMENT : Generated using the function generateClusteredNetwork from the R-package netgen (Bossek,2015) - Number of clusters: 5
TYPE : TSP
DIMENSION : 22
EDGE_WEIGHT_TYPE : EUC_2D
NODE_COORD_SECTION
1 14.1902744232 74.7133898223
2 15.9263472244 71.8255958068
3 9.9520227501 62.0571821091
4 1.3045608925 70.4488433693
5 51.255605824 59.8974020419
6 49.8544300634 67.4499629727
7 46.2829867836 52.9540609861
8 39.4499048828 50.4045765549
9 66.6381830126 34.3032831776
10 75.5062782049 31.7162012528
11 76.4164134153 29.9550227636
12 88.5139704687 35.0041276669
13 69.5979326422 38.109083452
14 69.4789924305 29.5420645227
15 92.5670306618 78.2294550475
16 88.7958706329 88.4850549526
17 99.2134822115 78.0369375041
18 97.1090204571 78.750208459
19 30.9856820388 18.4077724091
20 23.8346873454 15.6969231298
21 28.7429967884 17.2810562447
22 15.6101306434 12.0390679525
EOF
